CMPL model generation - running

CMPL version: 1.11.0
Authors: Thomas Schleiff, Mike Steglich
Distributed under the GPLv3 

create model instance ...
write model instance ...
CMPL model generation - finished

Solver - running


Welcome to IBM(R) ILOG(R) CPLEX(R) Interactive Optimizer 12.7.1.0
  with Simplex, Mixed Integer & Barrier Optimizers
5725-A06 5725-A29 5724-Y48 5724-Y49 5724-Y54 5724-Y55 5655-Y21
Copyright IBM Corp. 1988, 2017.  All Rights Reserved.

Type 'help' for a list of available commands.
Type 'help' followed by a command name for more
information on commands.

CPLEX> Specified objective sense: MINIMIZE
Selected objective  name:  line[1]
Selected RHS        name:  RHS
Selected bound      name:  BOUND
Problem '/tmp/cmpl.T23980.mps' read.
Read time = 0.06 sec. (10.12 ticks)
CPLEX> CPXPARAM_Read_APIEncoding                        "UTF-8"
Tried aggregator 3 times.
MIP Presolve eliminated 24015 rows and 37606 columns.
MIP Presolve modified 425 coefficients.
Aggregator did 754 substitutions.
Reduced MIP has 3153 rows, 4095 columns, and 12115 nonzeros.
Reduced MIP has 3885 binaries, 0 generals, 0 SOSs, and 0 indicators.
Presolve time = 0.07 sec. (50.16 ticks)
Found incumbent of value 706.674290 after 0.13 sec. (88.85 ticks)
Probing fixed 13 vars, tightened 0 bounds.
Probing time = 0.02 sec. (5.30 ticks)
Tried aggregator 1 time.
MIP Presolve eliminated 0 rows and 13 columns.
MIP Presolve modified 64 coefficients.
Reduced MIP has 3153 rows, 4082 columns, and 12089 nonzeros.
Reduced MIP has 4082 binaries, 0 generals, 0 SOSs, and 0 indicators.
Presolve time = 0.01 sec. (10.29 ticks)
Probing time = 0.01 sec. (2.84 ticks)
Clique table members: 7463.
MIP emphasis: balance optimality and feasibility.
MIP search method: dynamic search.
Parallel mode: none, using 1 thread.
Root relaxation solution time = 0.01 sec. (5.91 ticks)

        Nodes                                         Cuts/
   Node  Left     Objective  IInf  Best Integer    Best Bound    ItCnt     Gap

*     0+    0                          706.6743      -29.1657           104.13%
      0     0      157.8343    11      706.6743      157.8343      152   77.67%
*     0+    0                          170.5029      157.8343             7.43%
*     0+    0                          158.0857      157.8343             0.16%
      0     0      158.0400     1      158.0857       Cuts: 6      154    0.03%
*     0+    0                          158.0629      158.0400             0.01%
      0     0        cutoff            158.0629                    154    0.00%
Elapsed time = 0.21 sec. (139.83 ticks, tree = 0.01 MB, solutions = 4)

Cover cuts applied:  4
Gomory fractional cuts applied:  2

Root node processing (before b&c):
  Real time             =    0.22 sec. (141.88 ticks)
Sequential b&c:
  Real time             =    0.00 sec. (0.00 ticks)
                          ------------
Total (root+branch&cut) =    0.22 sec. (141.88 ticks)

Solution pool: 4 solutions saved.

MIP - Integer optimal solution:  Objective =  1.5806286400e+02
Solution time =    0.22 sec.  Iterations = 154  Nodes = 0
Deterministic time = 142.00 ticks  (657.21 ticks/sec)

CPLEX> Incumbent solution written to file '/tmp/cmpl.T23980.gsol'.
CPLEX> 
CMPL: Time used for model generation: 1 seconds
CMPL: Time used for solving the model: 1 seconds


Solution written to ASCII file: results/output_generated_conf_0.4/2015-11-02-5/fair-nonlinear.sol

Solver - finished
